jobs  (incl. supersource/sink ):	102
RESOURCES
- renewable                 : 2 R
- nonrenewable              : 2 N
- doubly constrained        : 0 D
************************************************************************
PRECEDENCE RELATIONS:
jobnr.    #modes  #successors   successors
1	1	14		2 3 4 5 6 9 11 12 13 14 15 16 19 23 
2	3	5		21 18 10 8 7 
3	3	4		24 21 18 7 
4	3	4		26 21 18 8 
5	3	7		27 25 24 21 20 18 17 
6	3	4		20 18 17 10 
7	3	7		31 30 28 27 26 25 17 
8	3	7		31 30 28 27 25 24 17 
9	3	1		10 
10	3	9		40 33 32 30 29 28 27 25 22 
11	3	6		40 31 30 27 18 17 
12	3	5		29 25 24 22 18 
13	3	6		32 29 25 24 22 21 
14	3	6		40 32 31 29 28 27 
15	3	8		42 37 36 35 33 32 30 29 
16	3	5		34 32 31 30 28 
17	3	6		41 37 36 33 32 29 
18	3	5		35 34 33 32 28 
19	3	6		42 41 38 37 35 29 
20	3	5		37 34 32 31 30 
21	3	4		37 36 34 30 
22	3	4		41 39 37 31 
23	3	4		41 40 36 29 
24	3	5		41 40 39 38 34 
25	3	4		41 36 35 34 
26	3	4		42 40 38 35 
27	3	6		48 46 43 41 38 37 
28	3	4		46 45 41 36 
29	3	3		44 39 34 
30	3	6		50 48 46 45 41 38 
31	3	4		50 48 42 38 
32	3	7		50 49 48 47 46 45 43 
33	3	4		50 45 43 38 
34	3	7		52 50 49 48 47 46 45 
35	3	6		50 49 48 46 45 44 
36	3	4		53 50 47 39 
37	3	7		58 54 53 50 49 47 45 
38	3	7		61 57 55 53 52 49 44 
39	3	7		67 55 54 51 49 48 43 
40	3	6		56 55 53 51 50 43 
41	3	9		63 61 59 57 56 55 54 53 47 
42	3	6		64 63 59 58 56 46 
43	3	7		64 63 61 60 59 57 52 
44	3	4		67 63 54 47 
45	3	8		72 71 67 61 60 59 57 55 
46	3	5		61 57 55 54 53 
47	3	4		76 71 64 51 
48	3	6		83 72 63 61 60 58 
49	3	9		84 83 74 72 68 65 63 62 56 
50	3	9		83 72 71 68 67 66 65 63 61 
51	3	7		83 74 72 69 66 62 60 
52	3	4		74 71 69 58 
53	3	6		84 74 69 67 66 65 
54	3	3		81 62 60 
55	3	5		81 76 74 68 62 
56	3	5		81 76 75 69 66 
57	3	4		74 69 66 65 
58	3	4		68 66 65 62 
59	3	4		84 83 68 65 
60	3	3		84 68 65 
61	3	3		76 74 62 
62	3	8		91 88 80 79 77 75 73 70 
63	3	11		101 91 90 89 81 80 79 78 77 76 75 
64	3	8		101 87 86 83 81 80 79 72 
65	3	6		91 88 80 77 75 70 
66	3	5		91 80 79 77 70 
67	3	5		91 81 80 77 70 
68	3	7		91 90 89 88 87 79 73 
69	3	5		91 90 89 88 73 
70	3	9		101 100 90 89 87 86 85 82 78 
71	3	5		91 89 87 79 75 
72	3	4		90 89 78 75 
73	3	6		101 100 86 85 82 78 
74	3	8		99 98 97 95 90 89 86 85 
75	3	6		100 98 97 95 85 82 
76	3	5		99 97 96 95 86 
77	3	7		100 98 97 96 95 94 92 
78	3	6		98 97 96 95 93 92 
79	3	6		100 99 97 95 93 92 
80	3	6		98 96 95 94 93 92 
81	3	3		100 97 85 
82	3	5		99 96 94 93 92 
83	3	4		95 94 90 89 
84	3	3		95 93 89 
85	3	3		96 93 92 
86	3	3		94 93 92 
87	3	2		94 92 
88	3	2		94 92 
89	3	1		92 
90	3	1		92 
91	3	1		92 
92	3	1		102 
93	3	1		102 
94	3	1		102 
95	3	1		102 
96	3	1		102 
97	3	1		102 
98	3	1		102 
99	3	1		102 
100	3	1		102 
101	3	1		102 
102	1	0		
************************************************************************
REQUESTS/DURATIONS
jobnr.	mode	dur	R1	R2	N1	N2	
------------------------------------------------------------------------
1	1	0	0	0	0	0	
2	1	3	4	2	0	10	
	2	4	4	2	2	0	
	3	9	4	2	0	8	
3	1	1	1	3	5	0	
	2	6	1	2	4	0	
	3	6	1	2	0	1	
4	1	3	3	4	6	0	
	2	4	3	3	4	0	
	3	7	2	3	0	5	
5	1	3	2	4	7	0	
	2	3	1	4	0	4	
	3	6	1	4	0	3	
6	1	2	3	2	7	0	
	2	6	3	2	6	0	
	3	7	2	2	6	0	
7	1	3	3	4	6	0	
	2	4	3	3	0	1	
	3	8	3	2	0	1	
8	1	5	3	2	8	0	
	2	7	3	2	0	5	
	3	10	2	2	3	0	
9	1	4	4	5	8	0	
	2	6	2	3	0	3	
	3	10	2	3	2	0	
10	1	5	4	2	4	0	
	2	5	4	2	0	3	
	3	8	4	2	0	2	
11	1	1	5	4	0	9	
	2	4	3	4	0	9	
	3	5	3	4	0	8	
12	1	5	4	5	9	0	
	2	6	4	5	7	0	
	3	7	4	5	6	0	
13	1	2	5	3	7	0	
	2	8	4	2	6	0	
	3	9	4	2	0	2	
14	1	3	3	4	3	0	
	2	4	2	4	0	6	
	3	5	1	4	2	0	
15	1	2	3	1	0	8	
	2	8	3	1	0	6	
	3	10	1	1	0	6	
16	1	1	4	5	2	0	
	2	2	3	4	2	0	
	3	9	3	3	0	1	
17	1	4	4	5	0	8	
	2	8	4	2	1	0	
	3	10	3	1	0	8	
18	1	2	3	5	6	0	
	2	3	2	5	0	5	
	3	7	2	5	0	4	
19	1	2	4	3	6	0	
	2	3	2	3	5	0	
	3	5	1	3	4	0	
20	1	4	5	4	0	9	
	2	5	4	3	0	6	
	3	6	4	2	1	0	
21	1	2	3	3	7	0	
	2	9	2	3	6	0	
	3	10	2	2	6	0	
22	1	3	1	5	8	0	
	2	4	1	4	6	0	
	3	7	1	3	4	0	
23	1	1	4	5	9	0	
	2	2	4	5	0	5	
	3	4	4	5	0	2	
24	1	2	4	4	8	0	
	2	5	3	4	4	0	
	3	7	3	4	3	0	
25	1	2	1	4	0	7	
	2	3	1	4	0	6	
	3	7	1	3	0	4	
26	1	7	4	3	0	5	
	2	9	3	2	3	0	
	3	10	3	2	2	0	
27	1	5	3	4	7	0	
	2	6	3	4	0	8	
	3	8	3	4	4	0	
28	1	1	3	3	2	0	
	2	2	3	2	1	0	
	3	10	1	1	0	3	
29	1	4	1	5	3	0	
	2	6	1	4	2	0	
	3	9	1	3	0	4	
30	1	3	3	2	0	10	
	2	3	3	1	6	0	
	3	7	3	1	0	7	
31	1	1	5	1	8	0	
	2	3	5	1	6	0	
	3	4	5	1	3	0	
32	1	1	2	3	0	7	
	2	7	2	3	0	6	
	3	9	1	3	5	0	
33	1	4	3	5	8	0	
	2	5	3	4	0	4	
	3	5	2	3	8	0	
34	1	3	4	5	0	6	
	2	3	4	4	7	0	
	3	8	2	2	0	1	
35	1	2	1	3	0	6	
	2	3	1	2	0	3	
	3	4	1	2	0	2	
36	1	3	4	3	7	0	
	2	6	3	3	0	6	
	3	10	3	3	2	0	
37	1	3	4	5	7	0	
	2	4	3	3	5	0	
	3	8	2	1	4	0	
38	1	2	5	3	5	0	
	2	4	4	2	4	0	
	3	8	2	2	3	0	
39	1	1	4	4	5	0	
	2	6	3	3	0	3	
	3	7	1	2	0	3	
40	1	1	5	3	0	3	
	2	4	4	3	4	0	
	3	8	3	3	0	3	
41	1	5	3	3	8	0	
	2	8	2	2	7	0	
	3	9	1	2	5	0	
42	1	2	5	5	7	0	
	2	7	2	5	0	6	
	3	9	1	5	5	0	
43	1	3	5	4	0	8	
	2	5	3	4	4	0	
	3	10	3	4	0	7	
44	1	2	3	5	2	0	
	2	6	3	5	1	0	
	3	9	3	5	0	7	
45	1	3	4	4	0	10	
	2	5	4	4	0	7	
	3	6	4	4	0	3	
46	1	3	3	5	7	0	
	2	5	2	2	0	7	
	3	10	1	2	0	5	
47	1	6	3	4	0	3	
	2	9	3	3	0	3	
	3	10	1	3	0	1	
48	1	2	2	2	7	0	
	2	4	2	2	5	0	
	3	10	2	2	0	2	
49	1	5	3	2	0	3	
	2	7	2	2	7	0	
	3	9	2	2	0	2	
50	1	1	1	3	9	0	
	2	2	1	1	7	0	
	3	8	1	1	3	0	
51	1	2	5	4	3	0	
	2	3	4	3	3	0	
	3	10	4	3	2	0	
52	1	5	1	4	0	7	
	2	9	1	4	9	0	
	3	10	1	4	0	3	
53	1	1	1	3	0	6	
	2	3	1	3	0	5	
	3	9	1	2	5	0	
54	1	2	3	4	0	3	
	2	5	3	2	7	0	
	3	7	3	2	0	2	
55	1	7	2	4	5	0	
	2	8	1	4	4	0	
	3	10	1	3	2	0	
56	1	2	1	3	0	4	
	2	4	1	1	0	4	
	3	5	1	1	0	3	
57	1	2	4	3	0	7	
	2	9	3	3	6	0	
	3	10	3	3	3	0	
58	1	4	4	4	0	7	
	2	5	4	3	0	6	
	3	6	4	3	0	5	
59	1	1	4	3	0	5	
	2	7	4	2	9	0	
	3	10	3	1	8	0	
60	1	5	4	3	8	0	
	2	7	4	2	0	7	
	3	10	4	2	3	0	
61	1	3	5	1	0	8	
	2	7	4	1	0	6	
	3	10	4	1	0	3	
62	1	3	2	4	5	0	
	2	8	1	3	0	9	
	3	9	1	3	0	8	
63	1	3	2	3	9	0	
	2	7	2	2	0	6	
	3	8	1	2	0	2	
64	1	1	5	5	6	0	
	2	5	3	4	4	0	
	3	6	3	3	4	0	
65	1	2	1	4	0	5	
	2	5	1	3	6	0	
	3	8	1	1	0	4	
66	1	3	5	3	9	0	
	2	7	5	2	0	5	
	3	9	5	2	0	1	
67	1	1	3	2	8	0	
	2	4	2	1	7	0	
	3	10	2	1	0	2	
68	1	2	4	2	0	2	
	2	4	4	1	0	2	
	3	9	4	1	0	1	
69	1	1	4	5	0	8	
	2	1	2	4	5	0	
	3	2	1	3	0	5	
70	1	2	2	1	7	0	
	2	7	2	1	6	0	
	3	8	2	1	5	0	
71	1	6	2	2	0	6	
	2	8	2	2	0	4	
	3	10	2	2	0	3	
72	1	6	5	5	6	0	
	2	6	4	3	0	6	
	3	9	4	2	3	0	
73	1	2	2	3	0	2	
	2	2	2	3	3	0	
	3	5	2	3	0	1	
74	1	5	2	1	10	0	
	2	8	2	1	0	5	
	3	10	1	1	0	4	
75	1	1	5	4	10	0	
	2	6	4	2	8	0	
	3	7	2	1	0	1	
76	1	1	2	4	0	9	
	2	4	2	4	5	0	
	3	5	2	4	2	0	
77	1	2	2	1	0	6	
	2	3	2	1	0	3	
	3	7	2	1	0	1	
78	1	3	2	2	0	9	
	2	8	2	1	0	6	
	3	9	2	1	1	0	
79	1	3	4	4	6	0	
	2	4	3	3	5	0	
	3	8	3	2	4	0	
80	1	5	2	5	4	0	
	2	6	2	3	0	6	
	3	9	2	3	3	0	
81	1	2	2	2	0	9	
	2	3	2	2	0	4	
	3	4	2	2	0	3	
82	1	2	4	4	4	0	
	2	3	4	2	4	0	
	3	4	4	2	3	0	
83	1	1	4	1	0	9	
	2	4	3	1	0	5	
	3	10	3	1	7	0	
84	1	2	4	3	6	0	
	2	3	3	3	5	0	
	3	9	1	3	3	0	
85	1	7	3	3	8	0	
	2	9	2	3	0	9	
	3	10	2	3	4	0	
86	1	5	3	1	0	10	
	2	10	3	1	6	0	
	3	10	3	1	0	8	
87	1	3	2	2	0	5	
	2	4	1	2	0	4	
	3	8	1	2	0	2	
88	1	2	4	2	0	8	
	2	3	2	2	7	0	
	3	3	2	2	0	4	
89	1	1	3	3	0	9	
	2	2	3	3	0	6	
	3	5	2	3	0	6	
90	1	2	4	4	0	4	
	2	3	4	4	0	3	
	3	4	4	4	0	2	
91	1	3	4	4	9	0	
	2	6	4	4	6	0	
	3	7	4	4	0	2	
92	1	6	5	3	0	5	
	2	7	3	3	0	3	
	3	10	2	3	8	0	
93	1	1	3	2	0	7	
	2	8	2	2	0	4	
	3	10	1	2	0	2	
94	1	8	4	3	4	0	
	2	8	3	2	0	2	
	3	9	2	1	0	2	
95	1	1	4	3	10	0	
	2	2	2	1	4	0	
	3	3	2	1	0	4	
96	1	2	3	3	9	0	
	2	6	2	3	0	2	
	3	10	1	3	0	2	
97	1	3	3	4	3	0	
	2	5	3	2	0	2	
	3	7	3	1	1	0	
98	1	1	2	3	0	7	
	2	1	1	3	4	0	
	3	5	1	1	0	7	
99	1	3	5	5	0	6	
	2	4	4	4	4	0	
	3	7	4	2	1	0	
100	1	8	3	4	9	0	
	2	9	2	3	7	0	
	3	10	1	2	4	0	
101	1	5	2	5	4	0	
	2	8	1	4	0	3	
	3	10	1	4	0	2	
102	1	0	0	0	0	0	
************************************************************************

 RESOURCE AVAILABILITIES 
	R 1	R 2	N 1	N 2
	38	38	178	152

************************************************************************
